(set-logic QF_BV)
(declare-fun _substvar_369_ () (_ BitVec 63))
(declare-fun _substvar_106_ () (_ BitVec 63))
(declare-fun _substvar_371_ () (_ BitVec 63))
(declare-fun _substvar_301_ () (_ BitVec 1))
(declare-fun _substvar_391_ () (_ BitVec 63))
(declare-fun _substvar_527_ () Bool)
(declare-fun _substvar_406_ () (_ BitVec 1))
(declare-fun _substvar_105_ () (_ BitVec 63))
(declare-fun _substvar_394_ () (_ BitVec 63))
(assert (and true true true true true true true true true true true true true true true true true true true true true true true true true true true true true true true true true true true true true true true true true true true true true true true true true true true true true true true true true true true true true true true true true true true true true true true true true true true true true true true true true true true true true true true true true true true true true (ite _substvar_527_ (= _substvar_369_ (_ bv0 63)) (= _substvar_369_ (concat (_ bv0 62) _substvar_301_))) (= _substvar_391_ (concat ((_ extract 61 0) _substvar_369_) (bvxor ((_ extract 62 62) _substvar_369_) ((_ extract 61 61) _substvar_369_)))) (= _substvar_106_ (concat ((_ extract 61 0) _substvar_391_) (_ bv0 1))) true true true true true true true true true true true true true true true true true true true true true true true true true true true true true (= _substvar_371_ (concat (_ bv0 62) _substvar_406_)) (= _substvar_394_ (concat ((_ extract 61 0) _substvar_371_) (_ bv0 1))) (= _substvar_105_ (concat ((_ extract 61 0) _substvar_394_) (_ bv0 1))) true true true true true true true true true true true true true true true true true true true true true true true true true true true true true true true true true true true true true true true true true true true true true true true true true true true true true true true true true true true true true true true true true true true true true true true true true true true true true true true true true true true true true true true true true true true true true true true true true true true true true true true true true true true true true true true true true true true true true true true true true true true true true true true true true true true true true true true true true true true true true true true true true true true true true true true true true true true true true true true true true true true true (= (or false false false false false false false false false false false false false (= _substvar_106_ _substvar_105_) false false (= _substvar_106_ (_ bv0 63)) false false false (= _substvar_105_ (_ bv0 63)) false false false false false false false) false)))
(check-sat)
(exit)
